p cnf 54 193
3 -1 0
3 2 0
1 -2 -3 0
-4 -2 0
-4 -2 0
2 4 0
-5 3 0
-5 4 0
-3 -4 5 0
8 -6 0
8 7 0
6 -7 -8 0
9 5 0
9 8 0
-5 -8 -9 0
12 11 0
12 8 0
-11 -8 -12 0
-13 -10 0
-13 -12 0
10 12 13 0
-14 6 0
-14 2 0
-6 -2 14 0
-1 15 -16 0
1 -15 -16 0
-1 -15 16 0
1 15 16 0
14 16 -17 0
-14 -16 -17 0
14 -16 17 0
-14 16 17 0
18 13 0
18 -17 0
-13 17 -18 0
-7 -19 0
7 -19 0
-18 19 -20 0
18 -19 -20 0
-18 -19 20 0
18 19 20 0
22 12 0
22 -21 0
-12 21 -22 0
-23 -20 0
-23 22 0
20 -22 23 0
-9 23 -24 0
9 -23 -24 0
-9 -23 24 0
9 23 24 0
7 -25 0
-7 -25 0
25 -8 -26 0
-25 8 -26 0
25 8 26 0
-25 -8 26 0
-26 -12 -27 0
26 12 -27 0
-26 12 27 0
26 -12 27 0
28 11 0
28 16 0
-11 -16 -28 0
-2 -28 -29 0
2 28 -29 0
-2 28 29 0
2 -28 29 0
-31 16 0
-31 30 0
-16 -30 31 0
29 -31 -32 0
-29 31 -32 0
29 31 32 0
-29 -31 32 0
27 32 -33 0
-27 -32 -33 0
27 -32 33 0
-27 32 33 0
-11 6 -34 0
11 -6 -34 0
-11 -6 34 0
11 6 34 0
-33 34 -35 0
33 -34 -35 0
-33 -34 35 0
33 34 35 0
30 14 -36 0
-30 -14 -36 0
30 -14 36 0
-30 14 36 0
-37 -3 0
-37 29 0
3 -29 37 0
38 -36 0
38 -37 0
36 37 -38 0
-4 31 -39 0
4 -31 -39 0
-4 -31 39 0
4 31 39 0
-38 -39 -40 0
38 39 -40 0
-38 39 40 0
38 -39 40 0
-41 -28 0
-41 29 0
28 -29 41 0
42 -30 0
42 -41 0
30 41 -42 0
43 -42 0
43 -11 0
42 11 -43 0
28 -43 -44 0
-28 43 -44 0
28 43 44 0
-28 -43 44 0
-45 29 0
-45 -31 0
-29 31 45 0
46 16 0
46 45 0
-16 -45 -46 0
48 -42 0
48 47 0
42 -47 -48 0
-49 8 0
-49 48 0
-8 -48 49 0
-46 49 -50 0
46 -49 -50 0
-46 -49 50 0
46 49 50 0
-44 -50 -51 0
44 50 -51 0
-44 50 51 0
44 -50 51 0
52 -40 0
52 51 0
40 -51 -52 0
-35 52 -53 0
35 -52 -53 0
-35 -52 53 0
35 52 53 0
54 -24 0
54 -53 0
24 53 -54 0
31 6 0
-40 13 -5 -21 0
38 51 16 -42 -18 -32 0
-18 11 0
43 6 -16 -40 0
53 34 0
44 -45 0
-4 33 26 -13 29 9 0
-32 49 19 -53 0
22 -9 -25 0
21 -20 32 0
-42 13 0
16 26 35 -24 9 0
-15 -33 18 -23 0
-22 -4 -54 17 19 0
-33 25 44 0
-25 2 -11 15 0
23 -8 44 -28 35 0
52 31 -3 0
51 48 -19 17 0
12 -16 -25 40 -24 -8 0
-7 48 0
-22 -42 -14 8 1 0
33 -52 44 0
50 -14 3 -42 -25 22 0
-38 -33 0
53 48 19 0
-6 43 -36 51 40 0
25 -7 31 34 36 3 0
-24 -46 -28 51 8 0
33 35 -29 -43 0
-18 12 42 26 -35 0
34 -37 0
-50 28 -4 53 -47 0
17 -14 -15 0
29 -42 30 -1 11 -47 0
-8 9 -19 0
26 25 -27 9 0
-12 17 -45 0
-4 21 20 14 0
-16 32 15 -31 -9 24 0
7 -29 -33 1 0
-40 13 -42 -11 -30 0
40 -34 -32 -51 -2 0
54 0
